
******************************************************************************
This program contains Ipopt, a library for large-scale nonlinear optimization.
 Ipopt is released as open source code under the Eclipse Public License (EPL).
         For more information visit http://projects.coin-or.org/Ipopt

This version of Ipopt was compiled from source code available at
    https://github.com/IDAES/Ipopt as part of the Institute for the Design of
    Advanced Energy Systems Process Systems Engineering Framework (IDAES PSE
    Framework) Copyright (c) 2018-2019. See https://github.com/IDAES/idaes-pse.

This version of Ipopt was compiled using HSL, a collection of Fortran codes
    for large-scale scientific computation.  All technical papers, sales and
    publicity material resulting from use of the HSL codes within IPOPT must
    contain the following acknowledgement:
        HSL, a collection of Fortran codes for large-scale scientific
        computation. See http://www.hsl.rl.ac.uk.
******************************************************************************

This is Ipopt version 3.13.2, running with linear solver ma27.

Number of nonzeros in equality constraint Jacobian...:      928
Number of nonzeros in inequality constraint Jacobian.:        0
Number of nonzeros in Lagrangian Hessian.............:      806

Total number of variables............................:      403
                     variables with only lower bounds:      124
                variables with lower and upper bounds:      217
                     variables with only upper bounds:        0
Total number of equality constraints.................:      402
Total number of inequality constraints...............:        0
        inequality constraints with only lower bounds:        0
   inequality constraints with lower and upper bounds:        0
        inequality constraints with only upper bounds:        0

iter    objective    inf_pr   inf_du lg(mu)  ||d||  lg(rg) alpha_du alpha_pr  ls
   0  0.0000000e+00 6.88e-01 2.11e-13  -1.0 0.00e+00    -  0.00e+00 0.00e+00   0
   1  1.5743678e-01 6.82e-01 1.10e+04  -1.0 1.58e+07    -  1.50e-02 1.87e-03h  6
   2  2.0921120e-01 6.82e-01 1.12e+04  -1.0 1.85e+07    -  1.41e-02 2.87e-04h  9
   3  3.8125750e+01 6.52e-01 3.46e+06  -1.0 2.41e+07    -  1.21e-02 2.11e-02h  3
   4  4.1675992e+01 6.51e-01 3.45e+06  -1.0 2.85e+07    -  1.61e-02 8.86e-04h  7
   5  6.0008874e+01 6.50e-01 3.48e+06  -1.0 3.56e+07    -  2.54e-02 2.98e-03h  5
   6  7.6059037e+02 7.43e-01 1.14e+07  -1.0 3.61e+07    -  2.68e-02 4.47e-02h  1
   7  7.7747323e+02 7.42e-01 1.14e+07  -1.0 4.59e+07    -  4.07e-02 4.96e-04h  1
   8r 7.7747323e+02 7.42e-01 9.99e+02  -0.1 0.00e+00    -  0.00e+00 4.95e-07R  5
   9r 7.7747418e+02 7.49e-01 9.97e+02  -0.1 2.48e+03    -  3.00e-03 1.68e-03f  1
iter    objective    inf_pr   inf_du lg(mu)  ||d||  lg(rg) alpha_du alpha_pr  ls
  10r 7.7747743e+02 7.65e-01 9.92e+02  -0.1 2.45e+03    -  5.51e-03 5.54e-03f  1
  11r 7.7748515e+02 8.16e-01 9.80e+02  -0.1 2.35e+03    -  1.26e-02 1.23e-02f  1
  12r 7.7748827e+02 8.30e-01 9.75e+02  -0.1 2.19e+03    -  5.27e-02 4.85e-03f  1
  13r 7.7749694e+02 8.41e-01 9.51e+02  -0.1 3.54e+03    -  2.00e-02 2.50e-02f  1
  14r 7.7752127e+02 1.32e+00 9.46e+02  -0.1 3.29e+03    -  3.29e-03 2.82e-02f  1
  15r 7.7752464e+02 1.31e+00 9.32e+02  -0.1 2.14e+03    -  9.47e-03 5.04e-03f  1
  16r 7.7752724e+02 1.31e+00 9.33e+02  -0.1 3.17e+03    -  9.87e-04 6.03e-03f  1
  17r 7.7752732e+02 1.31e+00 9.13e+02  -0.1 3.35e+03    -  2.78e-02 2.18e-04f  1
  18r 7.7753083e+02 1.29e+00 9.06e+02  -0.1 2.61e+03    -  3.17e-03 1.08e-02f  1
  19r 7.7753957e+02 1.26e+00 8.88e+02  -0.1 1.97e+03    -  1.93e-02 2.72e-02f  1
iter    objective    inf_pr   inf_du lg(mu)  ||d||  lg(rg) alpha_du alpha_pr  ls
  20r 7.7754663e+02 1.22e+00 8.99e+02  -0.1 1.91e+03    -  9.63e-03 2.73e-02f  1
  21r 7.7754670e+02 1.22e+00 9.00e+02  -0.1 1.27e+03    -  2.43e-04 8.21e-04f  1
  22r 7.7754672e+02 1.22e+00 8.59e+02  -0.1 1.39e+03    -  5.90e-02 8.31e-04f  1
  23r 7.7754741e+02 1.17e+00 8.20e+02  -0.1 8.18e+02    -  4.33e-02 4.49e-02f  1
  24r 7.7754747e+02 1.15e+00 8.07e+02  -0.1 6.79e+02    -  5.13e-03 1.49e-02f  1
  25r 7.7754750e+02 1.10e+00 7.94e+02  -0.1 6.73e+02    -  1.54e-02 3.98e-02f  1
  26r 7.7754695e+02 9.88e-01 6.95e+02  -0.1 6.55e+02    -  1.24e-01 1.04e-01f  1
  27r 7.7754599e+02 8.85e-01 6.54e+02  -0.1 6.25e+02    -  4.43e-01 1.04e-01f  1
  28r 7.7754395e+02 6.51e-01 5.38e+02  -0.1 6.53e+02    -  6.13e-02 2.77e-01f  1
  29  7.7725168e+02 6.51e-01 8.52e+05  -1.0 1.25e+08    -  3.78e-02 1.34e-05h  1
iter    objective    inf_pr   inf_du lg(mu)  ||d||  lg(rg) alpha_du alpha_pr  ls
  30  7.4365898e+02 3.39e+00 5.08e+06  -1.0 2.43e+08    -  1.81e-02 4.37e-04f  4
  31  6.7731624e+02 3.39e+00 1.01e+07  -1.0 2.02e+08    -  1.82e-02 1.01e-03f  3
  32  6.6471239e+02 3.38e+00 2.48e+07  -1.0 2.08e+08    -  1.93e-02 2.07e-04f  5
  33  6.3226329e+02 3.38e+00 4.43e+07  -1.0 2.09e+08    -  2.09e-02 5.69e-04f  4
  34  6.1838232e+02 3.38e+00 1.63e+08  -1.0 2.12e+08    -  2.29e-02 2.54e-04f  5
  35  5.7475632e+02 1.24e+01 7.62e+09  -1.0 2.19e+08    -  2.54e-02 8.99e-04f  1
  36  4.6823793e+02 4.24e+01 1.26e+10  -1.0 2.19e+08    -  2.76e-02 4.47e-03f  1
  37  3.2728877e+02 4.20e+01 1.50e+10  -1.0 1.36e+08    -  2.37e-02 9.88e-03f  1
  38  3.1918860e+02 4.20e+01 1.50e+10  -1.0 2.30e+09    -  3.11e-03 2.43e-04f  2
  39  2.8132732e+02 5.67e+01 1.68e+10  -1.0 2.04e+08    -  9.44e-03 5.19e-03F  1
iter    objective    inf_pr   inf_du lg(mu)  ||d||  lg(rg) alpha_du alpha_pr  ls
  40  2.8376827e+02 5.67e+01 1.68e+10  -1.0 2.82e+09    -  2.85e-04 2.77e-05h  6
  41  2.7640855e+02 5.67e+01 1.68e+10  -1.0 7.38e+09    -  3.45e-04 5.97e-05f  2
  42  2.7660633e+02 5.67e+01 1.68e+10  -1.0 1.85e+08    -  2.42e-02 3.21e-05h  9
  43  2.7669650e+02 5.67e+01 1.68e+10  -1.0 1.94e+08    -  2.42e-02 1.52e-05h 10
  44  2.7267197e+02 5.67e+01 1.75e+10  -1.0 7.09e+08    -  1.13e-02 5.33e-04f  3
  45  2.7297071e+02 5.67e+01 1.75e+10  -1.0 1.40e+08    -  2.43e-02 2.91e-05h  9
  46r 2.7297071e+02 5.67e+01 1.00e+03   1.8 0.00e+00    -  0.00e+00 3.92e-07R 13
  47r 2.7296957e+02 9.06e+00 9.94e+02   1.8 1.36e+04    -  6.91e-03 3.90e-03f  1
  48r 2.7296957e+02 9.06e+00 9.99e+02   1.0 0.00e+00    -  0.00e+00 5.52e-08R  2
  49r 2.7296927e+02 4.12e+00 9.97e+02   1.0 7.43e+03    -  2.81e-03 1.21e-03f  1
iter    objective    inf_pr   inf_du lg(mu)  ||d||  lg(rg) alpha_du alpha_pr  ls
  50  2.7023045e+02 6.60e+00 1.58e+04  -1.0 2.15e+08    -  2.16e-02 5.31e-04f  1
  51  3.1290669e+02 6.58e+00 1.76e+04  -1.0 5.10e+07    -  2.78e-02 2.61e-03h  7
  52  3.7312745e+02 6.56e+00 1.90e+04  -1.0 5.65e+07    -  2.80e-02 2.93e-03h  8
  53  4.0895104e+02 6.56e+00 1.97e+04  -1.0 6.42e+07    -  2.91e-02 1.42e-03h  9
  54  4.2851742e+02 6.55e+00 1.99e+04  -1.0 6.89e+07    -  2.89e-02 7.01e-04h 10
  55  4.3874989e+02 6.55e+00 1.99e+04  -1.0 7.16e+07    -  2.98e-02 3.48e-04h 11
  56  4.4005692e+02 6.55e+00 1.99e+04  -1.0 7.31e+07    -  3.10e-02 4.33e-05h 14
  57r 4.4005692e+02 6.55e+00 1.00e+03   0.8 0.00e+00    -  0.00e+00 2.92e-07R 20
  58r 4.4005674e+02 3.84e+00 9.96e+02   0.8 5.50e+03    -  6.90e-03 1.80e-03f  1
  59r 4.4005674e+02 3.84e+00 9.99e+02   0.6 0.00e+00    -  0.00e+00 2.65e-07R 13
iter    objective    inf_pr   inf_du lg(mu)  ||d||  lg(rg) alpha_du alpha_pr  ls
  60r 4.4005608e+02 3.83e+00 9.97e+02   0.6 4.07e+03    -  1.30e-02 2.22e-03f  1
  61r 4.4005513e+02 3.71e+00 9.93e+02   0.6 4.52e+03    -  8.59e-04 4.20e-03f  1
  62r 4.4005438e+02 3.44e+00 9.91e+02   0.6 5.95e+03    -  2.63e-03 4.13e-03f  1
  63  4.3564229e+02 3.44e+00 4.15e+04  -1.0 2.14e+11    -  3.55e-05 4.10e-07f  1
  64  4.4204909e+02 3.44e+00 4.15e+04  -1.0 1.17e+09    -  1.00e-03 5.02e-05h  8
  65  4.4863711e+02 3.44e+00 4.15e+04  -1.0 1.35e+09    -  1.00e-03 4.47e-05h  8
  66  4.5558180e+02 3.44e+00 4.16e+04  -1.0 1.50e+09    -  1.44e-03 4.14e-05h  8
  67  4.6288880e+02 3.44e+00 4.17e+04  -1.0 1.67e+09    -  1.88e-03 3.82e-05h  8
  68  4.7055695e+02 3.44e+00 4.23e+04  -1.0 1.87e+09    -  6.02e-03 3.50e-05h  8
  69  4.7857860e+02 3.44e+00 4.24e+04  -1.0 2.12e+09    -  7.86e-04 3.17e-05h  8
iter    objective    inf_pr   inf_du lg(mu)  ||d||  lg(rg) alpha_du alpha_pr  ls
  70  4.8693766e+02 3.44e+00 4.45e+04  -1.0 2.43e+09    -  1.00e-02 2.84e-05h  8
  71  4.9560665e+02 3.44e+00 4.46e+04  -1.0 2.83e+09    -  6.07e-04 2.50e-05h  8
  72  5.0454289e+02 3.44e+00 4.66e+04  -1.0 3.36e+09    -  3.94e-03 2.15e-05h  8
  73  5.1368359e+02 3.44e+00 4.70e+04  -1.0 4.11e+09    -  4.88e-04 1.80e-05h  8
  74  5.1631306e+03 3.43e+00 2.29e+06  -1.0 5.27e+09    -  8.79e-03 1.84e-03w  1
  75  4.5238757e+03 3.76e+01 1.43e+07  -1.0 2.27e+09    -  7.77e-04 2.33e-03w  1
  76  5.6783198e+03 3.72e+01 1.83e+09  -1.0 1.33e+08    -  2.73e-03 1.20e-02w  1
  77r 5.1368359e+02 3.44e+00 1.00e+03   0.5 0.00e+00    -  0.00e+00 2.15e-13R 33
  78r 5.1368329e+02 3.24e+00 9.96e+02   0.5 2.19e+03    -  8.31e-03 3.38e-03f  1
  79r 5.1368281e+02 2.53e+00 9.87e+02   0.5 3.24e+03    -  6.69e-03 8.81e-03f  1
iter    objective    inf_pr   inf_du lg(mu)  ||d||  lg(rg) alpha_du alpha_pr  ls
  80r 5.1368281e+02 2.53e+00 9.99e+02   0.4 0.00e+00    -  0.00e+00 4.75e-07R 11
  81r 5.1368230e+02 1.70e+00 9.90e+02   0.4 4.11e+03    -  1.15e-02 9.03e-03f  1
  82r 5.1368230e+02 1.70e+00 9.99e+02   0.2 0.00e+00    -  0.00e+00 1.36e-08R  2
  83r 5.1368211e+02 1.22e+00 9.92e+02   0.2 1.88e+03    -  3.31e-02 7.24e-03f  1
  84r 5.1368211e+02 1.22e+00 9.99e+02   0.1 0.00e+00    -  0.00e+00 3.27e-07R  5
  85r 5.1368178e+02 6.30e-01 9.92e+02   0.1 5.09e+03    -  1.56e-02 7.10e-03f  1
  86r 5.1368178e+02 6.30e-01 9.99e+02  -0.2 0.00e+00    -  0.00e+00 3.44e-07R  5
  87r 5.1368143e+02 6.29e-01 9.93e+02  -0.2 1.24e+03    -  5.32e-02 6.35e-03f  1
  88r 5.1367912e+02 6.27e-01 9.30e+02  -0.2 1.23e+03    -  1.50e-01 6.27e-02f  1
  89r 5.1367355e+02 6.27e-01 7.64e+02  -0.2 1.15e+03    -  8.33e-02 1.79e-01f  1
iter    objective    inf_pr   inf_du lg(mu)  ||d||  lg(rg) alpha_du alpha_pr  ls
  90r 5.1366739e+02 6.27e-01 6.94e+02  -0.2 9.35e+02    -  4.17e-01 9.14e-02f  1
  91r 5.1363576e+02 6.25e-01 1.67e+03  -0.2 8.64e+02    -  8.42e-02 4.83e-01f  1
  92r 5.1362217e+02 6.21e-01 1.72e+03  -0.2 5.39e+02    -  3.85e-01 7.67e-01f  1
  93r 5.1361771e+02 6.16e-01 5.72e+02  -0.2 2.54e+02    -  1.14e-01 6.73e-01f  1
  94r 5.1362609e+02 6.10e-01 3.01e+01  -0.2 2.12e+02    -  9.15e-01 1.00e+00h  1
  95r 5.1362461e+02 6.01e-01 3.32e+01  -0.2 1.04e+01    -  1.09e-01 1.00e+00f  1
  96r 5.1362035e+02 6.00e-01 2.54e+02  -0.2 6.65e+02    -  5.39e-01 4.63e-02f  1
  97r 5.1357112e+02 5.74e-01 7.01e+02  -0.2 3.57e+02    -  9.90e-02 1.00e+00f  1
  98r 5.1357112e+02 5.74e-01 6.10e+02  -0.2 7.38e+01  -2.0 1.47e-01 1.40e-01f  1
  99r 5.1357112e+02 5.74e-01 5.20e+01  -0.2 1.54e+01  -1.6 9.90e-01 1.00e+00f  1
iter    objective    inf_pr   inf_du lg(mu)  ||d||  lg(rg) alpha_du alpha_pr  ls
 100r 5.1357112e+02 5.74e-01 1.97e+02  -0.2 9.13e+00  -1.1 4.66e-01 1.00e+00f  1
 101r 5.1357112e+02 5.74e-01 4.18e+01  -0.2 5.38e-02   2.9 9.94e-01 1.00e+00f  1
 102r 5.1357112e+02 5.74e-01 4.84e+01  -0.2 2.34e-02   3.3 1.00e+00 1.00e+00f  1
 103r 5.1357112e+02 5.74e-01 9.01e+01  -0.2 1.30e-01   2.8 1.00e+00 1.00e+00f  1
 104r 5.1357112e+02 5.74e-01 1.64e+02  -0.2 3.13e+00   2.4 8.83e-02 1.04e-02f  1
 105r 5.1356810e+02 5.74e-01 1.24e+02  -0.2 2.34e+02    -  2.89e-01 1.42e-01f  1
 106r 5.1357858e+02 5.74e-01 2.49e+01  -0.2 7.57e+01    -  1.00e+00 1.00e+00h  1
 107r 5.1357695e+02 5.74e-01 1.63e+01  -0.9 7.98e+00    -  9.55e-01 9.06e-01f  1
 108r 5.1345085e+02 5.76e-01 2.68e+01  -0.9 1.27e+03    -  1.00e+00 9.10e-01f  1
 109r 5.1343846e+02 5.76e-01 8.48e-03  -0.9 1.17e+02    -  1.00e+00 1.00e+00f  1
iter    objective    inf_pr   inf_du lg(mu)  ||d||  lg(rg) alpha_du alpha_pr  ls
 110r 5.1343783e+02 5.76e-01 1.37e+01  -3.6 7.91e+00    -  9.39e-01 8.73e-01f  1
 111r 5.1212645e+02 5.81e-01 1.66e+01  -3.6 2.10e+04    -  1.93e-01 2.42e-01f  1
 112r 5.1212444e+02 5.81e-01 5.56e+02  -3.6 1.63e+04    -  5.70e-01 4.94e-04f  1
 113r 5.1182850e+02 5.82e-01 9.57e+02  -3.6 1.57e+04    -  8.34e-01 7.30e-02f  1
 114r 5.1168593e+02 5.82e-01 1.01e+03  -3.6 1.32e+04    -  8.56e-01 3.84e-02f  1
 115r 5.1134510e+02 5.82e-01 8.92e+02  -3.6 1.12e+04    -  1.00e+00 1.01e-01f  1
 116r 5.1096048e+02 5.79e-01 1.15e+03  -3.6 2.77e+04    -  3.43e-01 1.77e-01f  1
 117r 5.1048033e+02 5.77e-01 7.77e+02  -3.6 8.09e+03    -  7.04e-04 2.30e-01f  1
 118r 5.1043314e+02 5.77e-01 1.64e+03  -3.6 1.06e+04    -  1.00e+00 4.65e-02f  1
 119r 5.1011273e+02 5.73e-01 7.81e+02  -3.6 6.87e+03    -  1.00e+00 3.60e-01f  1
iter    objective    inf_pr   inf_du lg(mu)  ||d||  lg(rg) alpha_du alpha_pr  ls
 120r 5.0955449e+02 5.65e-01 1.67e+00  -3.6 4.60e+03    -  1.00e+00 9.98e-01f  1
 121  5.2259578e+02 5.65e-01 1.13e+03  -1.0 4.44e+08    -  4.99e-03 2.16e-04h  6
 122  5.4946197e+02 5.65e-01 2.40e+03  -1.0 3.53e+08    -  6.54e-03 5.34e-04h  5
 123  6.0652117e+02 5.64e-01 4.26e+03  -1.0 2.52e+08    -  9.85e-03 1.43e-03h  4
 124  7.2861474e+02 5.62e-01 9.34e+03  -1.0 1.65e+08    -  1.92e-02 3.91e-03h  3
 125  8.3921330e+02 5.59e-01 2.94e+04  -1.0 1.03e+08    -  1.03e-01 4.72e-03h  3
 126  9.4388933e+02 5.57e-01 4.15e+04  -1.0 7.97e+07    -  4.98e-02 4.47e-03h  3
 127  1.0302052e+03 5.54e-01 6.13e+04  -1.0 6.72e+07    -  4.97e-02 3.83e-03h  3
 128  1.1744682e+03 5.51e-01 1.59e+05  -1.0 5.96e+07    -  4.82e-02 6.26e-03h  2
 129  1.2017198e+03 5.50e-01 4.80e+06  -1.0 4.98e+07  -4.0 2.05e-01 1.75e-03h  3
iter    objective    inf_pr   inf_du lg(mu)  ||d||  lg(rg) alpha_du alpha_pr  ls
 130  1.2879400e+03 5.47e-01 2.67e+07  -1.0 4.76e+07  -4.5 2.17e-01 5.41e-03H  1
 131  1.2904514e+03 5.47e-01 1.19e+09  -1.0 2.30e+08  -5.0 1.17e-02 5.78e-05h  1
 132r 1.2904514e+03 5.47e-01 1.00e+03  -0.3 0.00e+00    -  0.00e+00 3.23e-07R 10
 133r 1.2904388e+03 5.47e-01 9.75e+02  -0.3 1.29e+03    -  2.72e-01 2.44e-02f  1
 134r 1.2904243e+03 5.47e-01 8.25e+02  -0.3 2.98e+02    -  9.90e-01 1.53e-01f  1
 135r 1.2902898e+03 8.24e-01 4.98e+01  -0.3 2.52e+02    -  9.90e-01 1.00e+00f  1
 136r 1.2902898e+03 7.05e-01 1.60e+02  -0.3 2.16e+01   0.0 6.21e-02 1.45e-01f  1
 137r 1.2902855e+03 5.47e-01 5.55e+02  -0.3 1.53e+02    -  9.93e-01 2.82e-01f  1
 138r 1.2902757e+03 5.47e-01 5.11e+00  -0.3 1.05e+02    -  1.00e+00 1.00e+00f  1
 139r 1.2902681e+03 5.47e-01 3.19e+00  -1.7 4.46e+01    -  7.63e-01 7.76e-01f  1
iter    objective    inf_pr   inf_du lg(mu)  ||d||  lg(rg) alpha_du alpha_pr  ls
 140r 1.2896624e+03 5.45e-01 1.72e+02  -1.7 1.22e+03    -  5.92e-01 8.57e-01f  1
 141r 1.2895936e+03 5.45e-01 2.02e+01  -1.7 2.64e+02    -  1.00e+00 8.93e-01f  1
 142r 1.2896718e+03 5.45e-01 1.52e-03  -1.7 2.51e+02    -  1.00e+00 1.00e+00f  1
 143r 1.2896422e+03 5.45e-01 2.61e+00  -3.7 9.54e+01    -  9.96e-01 9.46e-01f  1
 144r 1.2898148e+03 5.40e-01 6.07e+02  -3.7 1.48e+04    -  6.49e-01 1.87e-01f  1
 145r 1.2898385e+03 5.18e-01 3.46e+02  -3.7 1.20e+04    -  4.57e-04 1.00e+00f  1
 146r 1.2873552e+03 5.22e-01 1.10e+01  -3.7 7.26e+03    -  5.76e-01 1.00e+00h  1
 147r 1.2874213e+03 5.22e-01 8.29e-03  -3.7 1.94e+02    -  1.00e+00 1.00e+00h  1
 148r 1.2874216e+03 5.22e-01 3.94e-03  -5.6 9.32e-01    -  1.00e+00 1.00e+00f  1
 149r 1.2856086e+03 5.19e-01 1.50e+01  -5.6 1.55e+05    -  1.49e-01 6.72e-02f  1
iter    objective    inf_pr   inf_du lg(mu)  ||d||  lg(rg) alpha_du alpha_pr  ls
 150r 1.2856086e+03 5.19e-01 6.58e+02  -5.6 1.09e+05    -  1.00e+00 1.58e-06f  1
 151r 1.2829037e+03 5.05e-01 6.22e+02  -5.6 1.09e+05    -  1.00e+00 1.52e-01f  1
 152r 1.2829028e+03 5.05e-01 6.06e+02  -5.6 8.19e+04    -  1.15e-01 7.28e-05f  1
 153r 1.2823498e+03 5.01e-01 4.74e+02  -5.6 8.19e+04    -  9.52e-01 4.57e-02f  1
 154r 1.2823349e+03 5.01e-01 7.56e+02  -5.6 7.83e+04    -  1.00e+00 1.05e-03f  1
 155r 1.2768583e+03 4.74e-01 4.47e+02  -5.6 7.82e+04    -  1.00e+00 4.09e-01f  1
 156  1.3055079e+03 4.73e-01 2.50e+06  -1.0 4.29e+07    -  1.10e-01 1.93e-03h  1
 157  1.3057938e+03 4.73e-01 5.21e+06  -1.0 4.09e+07    -  1.17e-01 1.97e-05h  1
 158r 1.3057938e+03 4.73e-01 1.00e+03  -0.3 0.00e+00    -  0.00e+00 3.94e-07R  7
 159r 1.3057906e+03 4.75e-01 9.75e+02  -0.3 2.65e+02    -  9.80e-01 2.45e-02f  1
iter    objective    inf_pr   inf_du lg(mu)  ||d||  lg(rg) alpha_du alpha_pr  ls
 160r 1.3056769e+03 4.75e-01 6.00e+01  -0.3 3.14e+02    -  9.88e-01 1.00e+00f  1
 161r 1.3056338e+03 4.75e-01 3.27e+00  -0.3 1.23e+02    -  9.90e-01 1.00e+00f  1
 162r 1.3056404e+03 4.75e-01 4.53e-01  -0.3 1.95e+01    -  9.90e-01 1.00e+00f  1
 163r 1.3056368e+03 4.75e-01 5.10e+00  -1.0 3.26e+01    -  9.11e-01 9.35e-01f  1
 164r 1.3054232e+03 4.74e-01 4.95e-02  -1.0 4.01e+02    -  1.00e+00 1.00e+00f  1
 165r 1.3054032e+03 4.74e-01 1.23e+01  -3.9 7.10e+01    -  9.38e-01 8.69e-01f  1
 166r 1.3004512e+03 4.61e-01 9.94e+01  -3.9 1.82e+04    -  8.45e-01 5.52e-01f  1
 167r 1.2967104e+03 4.56e-01 8.42e+00  -3.9 8.15e+03    -  1.00e+00 9.51e-01f  1
 168r 1.2965257e+03 4.56e-01 2.51e-05  -3.9 3.98e+02    -  1.00e+00 1.00e+00h  1
 169r 1.2965264e+03 4.56e-01 2.33e-03  -5.8 2.18e+00    -  1.00e+00 1.00e+00f  1
iter    objective    inf_pr   inf_du lg(mu)  ||d||  lg(rg) alpha_du alpha_pr  ls
 170r 1.2950835e+03 4.56e-01 1.36e+02  -5.8 1.50e+05    -  1.00e+00 1.86e-02f  1
 171r 1.2910168e+03 4.56e-01 7.35e+02  -5.8 1.78e+05    -  1.00e+00 4.30e-02f  1
 172r 1.2873542e+03 4.56e-01 7.01e+02  -5.8 1.71e+05    -  1.00e+00 4.07e-02f  1
 173r 1.2871160e+03 4.56e-01 9.33e+02  -5.8 1.28e+05    -  1.00e+00 3.06e-03f  1
 174r 1.2783829e+03 4.56e-01 9.95e+02  -5.8 1.15e+05    -  1.00e+00 1.59e-01f  1
 175r 1.2767428e+03 4.56e-01 7.66e+02  -5.8 9.72e+04    -  1.00e+00 4.52e-02f  1
 176r 1.2659486e+03 4.56e-01 5.22e+02  -5.8 9.29e+04    -  1.00e+00 3.18e-01f  1
 177r 1.2659437e+03 4.56e-01 5.88e+02  -5.8 6.43e+04    -  1.00e+00 1.81e-04f  1
 178r 1.2477522e+03 4.56e-01 1.80e+02  -5.8 6.43e+04    -  1.00e+00 6.94e-01f  1
 179r 1.2476539e+03 4.56e-01 1.94e+02  -5.8 2.03e+04    -  1.00e+00 1.07e-02f  1
iter    objective    inf_pr   inf_du lg(mu)  ||d||  lg(rg) alpha_du alpha_pr  ls
 180r 1.2382769e+03 4.56e-01 1.93e+00  -5.8 2.01e+04    -  1.00e+00 9.91e-01f  1
 181r 1.2381461e+03 4.56e-01 4.12e-07  -5.8 4.49e+02    -  1.00e+00 1.00e+00h  1
 182r 1.2381461e+03 4.56e-01 1.41e-03  -8.7 6.51e-01    -  1.00e+00 1.00e+00h  1
 183r 1.2381459e+03 4.56e-01 4.40e+02  -8.7 1.41e+01  -4.0 5.68e-01 1.42e-01f  1
 184r 1.2381420e+03 4.56e-01 1.41e-03  -8.7 4.22e+01  -4.5 1.00e+00 1.00e+00f  1
In iteration 184, 1 Slack too small, adjusting variable bound
 185r 1.2381300e+03 4.56e-01 2.48e+02  -8.7 1.26e+02  -5.0 6.34e-01 9.68e-01f  1
 186r 1.2380937e+03 4.56e-01 1.40e-03  -8.7 3.77e+02  -5.4 1.00e+00 1.00e+00f  1
 187r 1.2379856e+03 4.56e-01 2.29e-02  -8.7 1.11e+03  -5.9 3.39e-01 1.00e+00f  1
 188r 1.2376684e+03 4.56e-01 1.32e-03  -8.7 3.19e+03  -6.4 1.00e+00 1.00e+00f  1
 189r 1.2367708e+03 4.56e-01 9.84e-02  -8.7 8.46e+03  -6.9 3.71e-01 1.00e+00f  1
iter    objective    inf_pr   inf_du lg(mu)  ||d||  lg(rg) alpha_du alpha_pr  ls
 190r 1.2344158e+03 4.56e-01 9.29e-04  -8.7 1.93e+04  -7.3 1.00e+00 1.00e+00f  1
 191r 1.2288467e+03 4.56e-01 8.83e-01  -8.7 4.08e+04  -7.8 3.74e-01 1.00e+00f  1
 192r 1.2167054e+03 4.56e-01 4.25e-03  -8.7 7.08e+04  -8.3 1.00e+00 1.00e+00f  1
 193r 1.2096487e+03 4.56e-01 1.50e+00  -8.7 1.09e+05  -8.8 3.68e-01 2.51e-01f  1
 194r 1.2096487e+03 4.56e-01 9.23e+02  -8.7 2.67e+05  -9.2 1.00e+00 1.33e-09h  1
 195r 1.2011687e+03 4.56e-01 1.08e+03  -8.7 1.41e+06  -9.7 7.50e-01 3.46e-02f  1
 196r 1.2011687e+03 4.56e-01 1.66e+03  -8.7 6.69e+06 -10.2 1.00e+00 4.58e-08f  1
 197r 1.1832667e+03 4.56e-01 1.53e+03  -8.7 7.61e+05  -9.8 1.06e-01 7.29e-02f  1
 198r 1.1831476e+03 4.56e-01 1.58e+03  -8.7 4.31e+08 -10.3 1.41e-01 6.11e-06f  1
 199r 1.1434036e+03 5.31e-01 1.31e+03  -8.7 9.99e+05  -9.8 2.36e-01 1.53e-01f  1
iter    objective    inf_pr   inf_du lg(mu)  ||d||  lg(rg) alpha_du alpha_pr  ls
 200r 1.1433745e+03 5.31e-01 1.67e+03  -8.7 2.20e+06 -10.3 4.48e-01 3.14e-05f  1
 201r 1.1394219e+03 5.24e-01 1.57e+03  -8.7 5.50e+05  -9.9 1.63e-01 1.36e-02f  1
 202r 1.1394114e+03 5.24e-01 1.89e+03  -8.7 2.90e+06 -10.4 4.26e-01 1.81e-05f  1
 203r 1.0799403e+03 4.57e-01 9.67e+02  -8.7 5.76e+05  -9.9 1.85e-09 3.16e-01f  1
 204r 1.0358449e+03 4.57e-01 9.26e+02  -8.7 1.02e+07 -10.4 1.96e-02 4.35e-02f  1
 205r 1.0358449e+03 4.57e-01 9.52e+02  -8.7 1.17e+06 -10.0 0.00e+00 5.58e-13R 11
 206r 1.0358449e+03 4.57e-01 9.52e+02  -8.7 2.99e+05  -9.6 1.44e-01 1.47e-09f  1
 207r 1.0212016e+03 4.57e-01 8.12e+02  -8.7 5.14e+05 -10.0 1.45e-01 5.43e-02f  1
 208r 1.0178262e+03 4.57e-01 8.12e+02  -8.7 2.16e+06 -10.5 2.26e-10 3.40e-03f  1
 209r 1.0178262e+03 4.57e-01 1.60e+03  -8.7 6.45e+06 -11.0 4.06e-01 1.55e-08f  1
iter    objective    inf_pr   inf_du lg(mu)  ||d||  lg(rg) alpha_du alpha_pr  ls
 210r 1.0087697e+03 4.57e-01 1.61e+03  -8.7 1.54e+08 -11.5 7.61e-04 1.79e-04f  1
 211r 1.0087683e+03 4.57e-01 2.00e+03  -8.7 1.18e+08    -  4.13e-03 2.55e-08f  1
 212r 8.6324393e+02 4.59e-01 1.72e+03  -8.7 2.79e+08    -  3.38e-12 1.27e-03f  1
 213r 8.6324392e+02 4.59e-01 1.72e+03  -8.7 5.47e+06 -11.0 7.38e-02 3.07e-09h  1
 214r 8.5917885e+02 4.59e-01 1.70e+03  -8.7 9.48e+05 -10.6 8.38e-01 1.11e-02f  1
 215r 8.5917885e+02 4.59e-01 1.70e+03  -8.7 2.72e+00  -0.8 9.71e-10 8.87e-09h  1
 216r 8.5917885e+02 4.59e-01 1.70e+03  -8.7 2.17e-01   2.4 0.00e+00 4.41e-13R 14
 217r 8.5917885e+02 4.59e-01 1.62e+03  -8.7 5.13e-02   2.8 2.11e-02 2.42e-08f  1
 218r 8.1698328e+02 4.60e-01 1.58e+03  -8.7 7.14e+06    -  1.47e-02 1.76e-02f  2
 219r 8.1698328e+02 4.60e-01 1.58e+03  -8.7 2.79e-01   2.3 0.00e+00 2.52e-14R 16
iter    objective    inf_pr   inf_du lg(mu)  ||d||  lg(rg) alpha_du alpha_pr  ls
 220r 8.1698328e+02 4.60e-01 1.41e+03  -8.7 6.13e-02   2.7 4.40e-02 7.82e-09f  1
 221r 7.8691237e+02 4.60e-01 1.42e+03  -8.7 2.41e+07    -  4.49e-03 3.69e-03f  3
 222r 7.8691237e+02 4.60e-01 1.50e+03  -8.7 1.42e-01   2.3 3.30e-02 9.70e-02f  1
 223r 7.8691237e+02 4.60e-01 1.50e+03  -8.7 3.50e+06    -  0.00e+00 8.69e-15R 16
 224r 7.8691237e+02 4.60e-01 1.62e+03  -8.7 3.51e+06    -  8.96e-02 5.52e-13f 10
 225r 7.8691237e+02 4.60e-01 1.56e+03  -8.7 7.44e-02   2.7 1.69e-02 7.71e-09f  1
 226r 7.8691237e+02 4.60e-01 1.58e+03  -8.7 3.64e+06    -  1.55e-02 1.80e-10f  1
 227r 7.7712049e+02 4.60e-01 1.55e+03  -8.7 3.24e+06    -  5.62e-03 1.29e-02f  1
 228r 7.7712049e+02 4.60e-01 1.55e+03  -8.7 3.65e+06    -  0.00e+00 1.81e-15R 20
 229r 7.7712049e+02 4.60e-01 1.55e+03  -8.7 3.66e+06    -  1.42e-05 1.85e-12f 10
iter    objective    inf_pr   inf_du lg(mu)  ||d||  lg(rg) alpha_du alpha_pr  ls
 230r 7.7711953e+02 4.60e-01 1.63e+03  -8.7 3.66e+06    -  6.37e-02 1.01e-06f  1
 231r 7.6431675e+02 4.61e-01 1.78e+03  -8.7 3.65e+06    -  1.64e-01 1.37e-02f  1
 232r 7.6431675e+02 4.61e-01 1.78e+03  -8.7 1.45e-01   2.2 0.00e+00 7.28e-15R 20
 233r 7.6431675e+02 4.61e-01 1.78e+03  -8.7 3.36e-01   1.7 1.51e-08 4.36e-09f  1
 234r 7.6431675e+02 4.61e-01 1.75e+03  -8.7 8.16e-01   1.3 6.29e-02 2.00e-01f  1
 235r 7.6431675e+02 4.61e-01 1.82e+03  -8.7 2.18e-01   0.8 1.72e-09 9.34e-02f  1
In iteration 235, 1 Slack too small, adjusting variable bound
 236r 7.6431675e+02 4.61e-01 2.38e+03  -8.7 1.94e-01   0.3 4.56e-02 2.31e-01f  1
 237r 7.6431675e+02 4.61e-01 1.99e+03  -8.7 2.57e-01  -0.2 3.82e-02 1.63e-01f  1
 238r 7.6431675e+02 4.61e-01 2.95e+03  -8.7 4.73e-01  -0.6 4.66e-02 3.82e-01f  1
 239r 7.6431675e+02 4.61e-01 4.06e+03  -8.7 3.92e-01  -1.1 1.54e-02 1.73e-01f  1
iter    objective    inf_pr   inf_du lg(mu)  ||d||  lg(rg) alpha_du alpha_pr  ls
 240r 7.6431675e+02 4.61e-01 5.31e+03  -8.7 1.75e+00  -1.6 1.63e-02 2.22e-01f  1
 241r 7.6431675e+02 4.61e-01 3.86e+03  -8.7 8.11e+00  -2.1 3.86e-02 3.32e-01f  1
 242r 7.6431674e+02 4.61e-01 7.66e+03  -8.7 7.83e+00  -2.6 1.16e-02 2.62e-01f  1
 243r 7.6431674e+02 4.61e-01 7.45e+03  -8.7 2.58e+01  -3.0 6.63e-03 2.71e-02f  1
 244r 7.6431673e+02 4.61e-01 6.65e+03  -8.7 3.93e+01  -3.5 1.05e-02 1.08e-01f  1
 245r 7.6431669e+02 4.61e-01 5.98e+03  -8.7 1.05e+02  -4.0 1.48e-02 1.22e-01f  1
 246r 7.6431662e+02 4.61e-01 5.58e+03  -8.7 3.19e+02  -4.5 3.53e-02 6.68e-02f  1
 247r 7.6431654e+02 4.61e-01 5.40e+03  -8.7 1.97e+02  -4.9 4.72e-03 3.20e-02f  1
 248r 7.6431649e+02 4.61e-01 5.37e+03  -8.7 3.35e+02  -5.4 5.60e-02 5.72e-03f  1
 249r 7.6431246e+02 4.61e-01 4.35e+03  -8.7 8.63e+02  -5.9 5.29e-03 1.91e-01f  1
iter    objective    inf_pr   inf_du lg(mu)  ||d||  lg(rg) alpha_du alpha_pr  ls
 250r 7.6430688e+02 4.61e-01 4.12e+03  -8.7 2.64e+03  -6.4 3.54e-01 9.39e-02f  1
 251r 7.6429545e+02 4.61e-01 3.81e+03  -8.7 3.12e+03  -6.9 3.60e-03 6.62e-02f  1
 252r 7.6429543e+02 4.61e-01 4.47e+03  -8.7 9.68e+03  -7.3 8.84e-01 3.76e-05f  1
 253r 7.6428123e+02 4.61e-01 4.13e+03  -8.7 3.51e+03  -6.9 1.28e-03 7.51e-02f  1
 254r 7.6428123e+02 4.61e-01 4.23e+03  -8.7 1.09e+04  -7.4 1.00e+00 1.07e-06f  1
 255r 7.6425926e+02 4.61e-01 3.79e+03  -8.7 3.74e+03  -7.0 3.02e-02 1.05e-01f  1
 256r 7.6425926e+02 4.61e-01 3.79e+03  -8.7 7.35e+03  -7.4 1.00e+00 6.94e-08f  1
 257r 7.6425501e+02 4.61e-01 3.69e+03  -8.7 2.69e+03  -7.0 5.74e-01 1.84e-02f  1
 258r 7.6415802e+02 4.61e-01 3.41e+03  -8.7 2.27e+04  -7.5 5.60e-01 8.88e-02f  1
 259r 7.6415802e+02 4.61e-01 3.41e+03  -8.7 7.57e-02   2.4 1.21e-03 7.59e-04f  1
iter    objective    inf_pr   inf_du lg(mu)  ||d||  lg(rg) alpha_du alpha_pr  ls
 260r 7.6415802e+02 4.61e-01 3.16e+03  -8.7 2.49e-01   1.9 4.71e-02 1.51e-04f  1
 261r 7.6415802e+02 4.61e-01 3.14e+03  -8.7 3.26e-02   1.4 5.24e-03 1.93e-03f  1
 262r 7.6415802e+02 4.61e-01 3.13e+03  -8.7 3.61e-02   0.9 1.48e-03 8.38e-03f  1
 263r 7.6415802e+02 4.61e-01 3.07e+03  -8.7 5.06e-02   0.5 4.13e-03 4.90e-02f  1
 264r 7.6415802e+02 4.61e-01 3.05e+03  -8.7 2.09e-01  -0.0 4.21e-03 1.73e-02f  1
 265r 7.6415802e+02 4.61e-01 3.27e+03  -8.7 3.51e-01  -0.5 3.42e-03 5.94e-02f  1
 266r 7.6415802e+02 4.61e-01 3.17e+03  -8.7 1.90e+00  -1.0 3.51e-02 3.06e-02f  1
 267r 7.6415802e+02 4.61e-01 2.82e+03  -8.7 4.34e+00  -1.5 6.26e-03 1.45e-01f  1
 268r 7.6415802e+02 4.61e-01 3.81e+03  -8.7 9.01e-01  -1.9 1.08e-02 9.97e-02f  1
 269r 7.6415801e+02 4.61e-01 6.05e+03  -8.7 3.10e+00  -2.4 1.73e-02 1.30e-01f  1
iter    objective    inf_pr   inf_du lg(mu)  ||d||  lg(rg) alpha_du alpha_pr  ls
 270r 7.6415801e+02 4.61e-01 5.25e+03  -8.7 8.26e+00  -2.9 8.54e-02 1.34e-01f  1
 271r 7.6415800e+02 4.61e-01 4.91e+03  -8.7 2.48e+01  -3.4 2.43e-02 6.34e-02f  1
 272r 7.6415798e+02 4.61e-01 4.36e+03  -8.7 5.21e+01  -3.8 3.63e-03 1.12e-01f  1
 273r 7.6415798e+02 4.61e-01 4.35e+03  -8.7 2.39e+01  -4.3 7.23e-02 3.61e-03f  1
 274r 7.6415783e+02 4.61e-01 4.00e+03  -8.7 6.77e+01  -4.8 8.88e-02 8.08e-02f  1
 275r 7.6415593e+02 4.61e-01 2.60e+03  -8.7 2.03e+02  -5.3 9.47e-02 3.50e-01f  1
 276r 7.6415053e+02 4.61e-01 1.70e+03  -8.7 2.43e+02  -5.7 6.77e-01 3.45e-01f  1
 277r 7.6414006e+02 4.61e-01 1.32e+03  -8.7 7.29e+02  -6.2 4.69e-01 2.24e-01f  1
 278r 7.6413955e+02 4.61e-01 1.32e+03  -8.7 1.87e+03  -6.7 3.25e-01 3.76e-03f  1
 279r 7.6413792e+02 4.61e-01 1.31e+03  -8.7 5.71e+03  -7.2 3.14e-01 3.93e-03f  1
iter    objective    inf_pr   inf_du lg(mu)  ||d||  lg(rg) alpha_du alpha_pr  ls
 280r 7.6413577e+02 4.61e-01 1.79e+03  -8.7 1.80e+04  -7.7 1.00e+00 1.70e-03f  1
 281r 7.6412683e+02 4.61e-01 1.71e+03  -8.7 9.97e+04  -8.1 4.43e-01 1.82e-03f  1
 282r 7.6411560e+02 4.61e-01 1.61e+03  -8.7 1.36e+04  -7.7 1.00e+00 8.16e-03f  1
 283r 7.6399743e+02 4.61e-01 2.16e+03  -8.7 6.03e+04  -8.2 1.00e+00 2.78e-02f  1
 284r 7.6367884e+02 4.61e-01 2.11e+03  -8.7 1.29e+05  -8.7 1.00e+00 2.84e-02f  1
 285r 7.5902387e+02 4.61e-01 1.82e+03  -8.7 3.88e+05  -9.1 6.96e-01 1.52e-01f  1
 286r 7.5902387e+02 4.61e-01 1.88e+03  -8.7 3.03e+06  -9.6 1.00e+00 9.05e-09f  1
 287r 7.4951387e+02 4.61e-01 1.22e+03  -8.7 4.47e+05  -9.2 1.00e+00 3.27e-01f  1
 288r 7.4951386e+02 4.61e-01 1.20e+03  -8.7 1.64e+05  -8.8 1.00e+00 2.09e-07h  1
 289r 7.4905375e+02 4.61e-01 1.19e+03  -8.7 7.41e+05  -9.2 1.00e+00 1.54e-02f  1
iter    objective    inf_pr   inf_du lg(mu)  ||d||  lg(rg) alpha_du alpha_pr  ls
 290r 7.4905278e+02 4.61e-01 1.27e+03  -8.7 2.72e+05  -9.7 1.00e+00 1.16e-05f  1
 291r 7.4214597e+02 4.61e-01 1.40e+03  -8.7 8.88e+05 -10.2 1.00e+00 2.70e-02f  1
 292r 7.2543670e+02 4.61e-01 2.00e+03  -8.7 1.96e+06    -  7.81e-01 3.51e-02f  1
 293r 7.2543607e+02 4.61e-01 1.58e+03  -8.7 9.42e+05    -  1.00e+00 2.96e-06f  1
 294r 7.0870167e+02 4.62e-01 1.45e+03  -8.7 9.39e+05    -  1.00e+00 8.23e-02f  1
 295r 7.0870024e+02 4.62e-01 1.17e+03  -8.7 4.95e+05    -  1.00e+00 1.47e-05f  1
 296r 7.0030430e+02 4.62e-01 1.07e+03  -8.7 4.95e+05    -  1.00e+00 8.88e-02f  1
 297r 7.0030190e+02 4.62e-01 9.16e+02  -8.7 1.99e+05    -  1.00e+00 7.33e-05h  1
 298r 6.7283111e+02 4.63e-01 2.42e+00  -8.7 1.99e+05    -  1.00e+00 1.00e+00f  1
 299r 6.6783160e+02 4.64e-01 2.44e-01  -8.7 4.45e+04    -  1.00e+00 1.00e+00h  1
iter    objective    inf_pr   inf_du lg(mu)  ||d||  lg(rg) alpha_du alpha_pr  ls
 300r 6.6801947e+02 4.64e-01 3.79e-05  -8.7 5.40e+02    -  1.00e+00 1.00e+00h  1

Number of Iterations....: 300

                                   (scaled)                 (unscaled)
Objective...............:   6.6801947365443914e+02    6.6801947365443914e+02
Dual infeasibility......:   3.0838688780028187e-04    3.0838688780028187e-04
Constraint violation....:   4.6371092790773183e-01    4.6371092790773183e-01
Complementarity.........:   2.3445387810134697e-09    2.3445387810134697e-09
Overall NLP error.......:   4.6371092790773183e-01    4.6371092790773183e-01


Number of objective function evaluations             = 855
Number of objective gradient evaluations             = 83
Number of equality constraint evaluations            = 862
Number of inequality constraint evaluations          = 0
Number of equality constraint Jacobian evaluations   = 320
Number of inequality constraint Jacobian evaluations = 0
Number of Lagrangian Hessian evaluations             = 301
Total CPU secs in IPOPT (w/o function evaluations)   =      0.428
Total CPU secs in NLP function evaluations           =      7.907

EXIT: Converged to a point of local infeasibility. Problem may be infeasible.
